words_train/words_815_SAT.qaiger
aag 86 16 0 1 70
32
16
8
22
20
12
26
30
6
4
18
10
28
2
14
24
173
34 5 2
36 35 5
38 36 7
40 38 9
42 40 11
44 42 13
46 44 15
48 45 14
50 49 47
52 21 19
54 52 23
56 54 25
58 56 27
60 58 29
62 60 31
64 61 30
66 65 63
68 66 51
70 19 2
72 20 4
74 72 71
76 53 35
78 76 75
80 78 23
82 55 24
84 83 57
86 39 8
88 87 41
90 89 84
92 53 22
94 93 55
96 95 79
98 37 6
100 99 39
102 101 97
104 103 91
106 104 81
108 57 26
110 109 59
112 41 10
114 113 43
116 114 111
118 88 85
120 119 117
122 120 107
124 59 28
126 125 61
128 43 12
130 129 45
132 131 126
134 115 110
136 135 133
138 136 123
140 67 50
142 130 127
144 143 141
146 144 139
148 147 69
150 33 17
152 32 16
154 153 151
156 155 62
158 154 63
160 159 157
162 160 46
164 161 47
166 165 163
168 167 148
170 166 149
172 171 169
i0 1 x[7]
i1 2 y[7]
i2 2 y[3]
i3 1 x[2]
i4 1 x[1]
i5 2 y[5]
i6 1 x[4]
i7 1 x[6]
i8 2 y[2]
i9 2 y[1]
i10 1 x[0]
i11 2 y[4]
i12 1 x[5]
i13 2 y[0]
i14 2 y[6]
i15 1 x[3]
o0 bv[0]
c
simplified
  <=
    add
      1
      subtract
        1 x
        1
    subtract
      2 y
      1
