words_train/words_815_SAT.qaiger.qdimacs
p cnf 86 211
a 9 10 11 12 13 14 15 16 0
e 1 2 3 4 5 6 7 8 17 18 19 20 21 22 23 24 25 26 27 28 29 30 31 32 33 34 35 36 37 38 39 40 41 42 43 44 45 46 47 48 49 50 51 52 53 54 55 56 57 58 59 60 61 62 63 64 65 66 67 68 69 70 71 72 73 74 75 76 77 78 79 80 81 82 83 84 85 86 0
2 -1 17 0
-2 -17 0
1 -17 0
17 2 18 0
-17 -18 0
-2 -18 0
-18 3 19 0
18 -19 0
-3 -19 0
-19 4 20 0
19 -20 0
-4 -20 0
-20 5 21 0
20 -21 0
-5 -21 0
-21 6 22 0
21 -22 0
-6 -22 0
-22 7 23 0
22 -23 0
-7 -23 0
22 -7 24 0
-22 -24 0
7 -24 0
24 23 25 0
-24 -25 0
-23 -25 0
10 9 26 0
-10 -26 0
-9 -26 0
-26 11 27 0
26 -27 0
-11 -27 0
-27 12 28 0
27 -28 0
-12 -28 0
-28 13 29 0
28 -29 0
-13 -29 0
-29 14 30 0
29 -30 0
-14 -30 0
-30 15 31 0
30 -31 0
-15 -31 0
30 -15 32 0
-30 -32 0
15 -32 0
32 31 33 0
-32 -33 0
-31 -33 0
-33 25 34 0
33 -34 0
-25 -34 0
9 -1 35 0
-9 -35 0
1 -35 0
-10 -2 36 0
10 -36 0
2 -36 0
-36 35 37 0
36 -37 0
-35 -37 0
26 17 38 0
-26 -38 0
-17 -38 0
-38 37 39 0
38 -39 0
-37 -39 0
-39 11 40 0
39 -40 0
-11 -40 0
27 -12 41 0
-27 -41 0
12 -41 0
41 28 42 0
-41 -42 0
-28 -42 0
19 -4 43 0
-19 -43 0
4 -43 0
43 20 44 0
-43 -44 0
-20 -44 0
44 -42 45 0
-44 -45 0
42 -45 0
26 -11 46 0
-26 -46 0
11 -46 0
46 27 47 0
-46 -47 0
-27 -47 0
47 39 48 0
-47 -48 0
-39 -48 0
18 -3 49 0
-18 -49 0
3 -49 0
49 19 50 0
-49 -50 0
-19 -50 0
50 48 51 0
-50 -51 0
-48 -51 0
51 45 52 0
-51 -52 0
-45 -52 0
-52 40 53 0
52 -53 0
-40 -53 0
28 -13 54 0
-28 -54 0
13 -54 0
54 29 55 0
-54 -55 0
-29 -55 0
20 -5 56 0
-20 -56 0
5 -56 0
56 21 57 0
-56 -57 0
-21 -57 0
-57 55 58 0
57 -58 0
-55 -58 0
-44 42 59 0
44 -59 0
-42 -59 0
59 58 60 0
-59 -60 0
-58 -60 0
-60 53 61 0
60 -61 0
-53 -61 0
29 -14 62 0
-29 -62 0
14 -62 0
62 30 63 0
-62 -63 0
-30 -63 0
21 -6 64 0
-21 -64 0
6 -64 0
64 22 65 0
-64 -65 0
-22 -65 0
65 -63 66 0
-65 -66 0
63 -66 0
57 -55 67 0
-57 -67 0
55 -67 0
67 66 68 0
-67 -68 0
-66 -68 0
-68 61 69 0
68 -69 0
-61 -69 0
33 -25 70 0
-33 -70 0
25 -70 0
-65 63 71 0
65 -71 0
-63 -71 0
71 70 72 0
-71 -72 0
-70 -72 0
-72 69 73 0
72 -73 0
-69 -73 0
73 34 74 0
-73 -74 0
-34 -74 0
16 8 75 0
-16 -75 0
-8 -75 0
-16 -8 76 0
16 -76 0
8 -76 0
76 75 77 0
-76 -77 0
-75 -77 0
77 -31 78 0
-77 -78 0
31 -78 0
-77 31 79 0
77 -79 0
-31 -79 0
79 78 80 0
-79 -80 0
-78 -80 0
-80 -23 81 0
80 -81 0
23 -81 0
80 23 82 0
-80 -82 0
-23 -82 0
82 81 83 0
-82 -83 0
-81 -83 0
83 -74 84 0
-83 -84 0
74 -84 0
-83 74 85 0
83 -85 0
-74 -85 0
85 84 86 0
-85 -86 0
-84 -86 0
-86 0
